SystemName    graphene72
SystemLabel   graphene72
NumberOfAtoms 72
NumberOfSpecies 1
%block Chemical_Species_label
1 6 C
%endblock Chemical_Species_label
LatticeConstant 1.0 Ang
%block LatticeVectors
14.76720 0.000000 0.00000
-7.38360 12.78877 0.00000
0.000000 0.000000 15.0000
%endblock LatticeVectors
AtomicCoordinatesFormat Ang
%block  AtomicCoordinatesAndAtomicSpecies
-5.53770 	11.01255 	7.50000 	1
-5.53770 	12.43353 	7.50000 	1
-4.30710 	8.88109 	7.50000 	1
-4.30710 	10.30206 	7.50000 	1
-3.07650 	6.74963 	7.50000 	1
-3.07650 	8.17060 	7.50000 	1
-3.07650 	11.01255 	7.50000 	1
-3.07650 	12.43353 	7.50000 	1
-1.84590 	8.88109 	7.50000 	1
-1.84590 	10.30206 	7.50000 	1
-1.84590 	4.61817 	7.50000 	1
-1.84590 	6.03914 	7.50000 	1
-0.61530 	2.48671 	7.50000 	1
-0.61530 	6.74963 	7.50000 	1
-0.61530 	11.01255 	7.50000 	1
-0.61530 	12.43353 	7.50000 	1
-0.61530 	3.90768 	7.50000 	1
-0.61530 	8.17060 	7.50000 	1
0.61530 	8.88109 	7.50000 	1
0.61530 	10.30206 	7.50000 	1
0.61530 	0.35524 	7.50000 	1
0.61530 	1.77622 	7.50000 	1
0.61530 	4.61817 	7.50000 	1
0.61530 	6.03914 	7.50000 	1
1.84590 	2.48671 	7.50000 	1
1.84590 	8.17060 	7.50000 	1
1.84590 	11.01255 	7.50000 	1
1.84590 	3.90768 	7.50000 	1
1.84590 	6.74963 	7.50000 	1
1.84590 	12.43353 	7.50000 	1
3.07650 	0.35524 	7.50000 	1
3.07650 	1.77622 	7.50000 	1
3.07650 	4.61817 	7.50000 	1
3.07650 	6.03914 	7.50000 	1
3.07650 	8.88109 	7.50000 	1
3.07650 	10.30206 	7.50000 	1
4.30710 	2.48671 	7.50000 	1
4.30710 	3.90768 	7.50000 	1
4.30710 	6.74963 	7.50000 	1
4.30710 	11.01255 	7.50000 	1
4.30710 	8.17060 	7.50000 	1
4.30710 	12.43353 	7.50000 	1
5.53770 	8.88109 	7.50000 	1
5.53770 	0.35524 	7.50000 	1
5.53770 	1.77622 	7.50000 	1
5.53770 	4.61817 	7.50000 	1
5.53770 	6.03914 	7.50000 	1
5.53770 	10.30206 	7.50000 	1
6.76830 	2.48671 	7.50000 	1
6.76830 	6.74963 	7.50000 	1
6.76830 	11.01255 	7.50000 	1
6.76830 	3.90768 	7.50000 	1
6.76830 	8.17060 	7.50000 	1
6.76830 	12.43353 	7.50000 	1
7.99890 	8.88109 	7.50000 	1
7.99890 	0.35524 	7.50000 	1
7.99890 	1.77622 	7.50000 	1
7.99890 	4.61817 	7.50000 	1
7.99890 	6.03914 	7.50000 	1
7.99890 	10.30206 	7.50000 	1
9.22950 	2.48671 	7.50000 	1
9.22950 	6.74963 	7.50000 	1
9.22950 	3.90768 	7.50000 	1
9.22950 	8.17060 	7.50000 	1
10.46010 	0.35524 	7.50000 	1
10.46010 	1.77622 	7.50000 	1
10.46010 	4.61817 	7.50000 	1
10.46010 	6.03914 	7.50000 	1
11.69070 	2.48671 	7.50000 	1
11.69070 	3.90768 	7.50000 	1
12.92130 	0.35524 	7.50000 	1
12.92130 	1.77622 	7.50000 	1
%endblock  AtomicCoordinatesAndAtomicSpecies
%block kgrid_Monkhorst_Pack
  5   0   0    0.0
  0   5   0    0.0
  0   0   1    0.0
%endblock kgrid_Monkhorst_Pack
xc.functional           GGA
xc.authors              PBE
MeshCutoff              300.0 Ry
SolutionMethod          diagon
OccupationFunction      MP
ElectronicTemperature   300 K
Spin                    non-polarized
FixSpin                 F
MaxSCFIterations        2000
SCF.DM.Tolerance        1.d-6
SCF.Mixer.History       8
SCF.Mixer.Weight        0.2
SCF.MustConverge        T
MD.UseSaveXV            T
MD.FinalTimeStep        1000
MD.TypeOfRun            Verlet
MD.VariableCell         F
MD.InitialTemperature   300 K
MD.TargetTemperature    300 K
MD.LengthTimeStep       1 fs
Diag.ParallelOverK      T
PAO.BasisType           split
PAO.BasisSize           SZP
SaveHS                  true
WriteMullikenPop        0
WriteKpoints            T
WriteBands              F
WriteKbands             F
WriteEigenvalues        T
WriteCoorXmol           T
BandLinesScale ReciprocalLatticeVectors
%block BandLines
1 0.0 0.0 0.0 Γ
15 0.5 0.0 0.0 M
10 0.33333333 0.33333333 0.0 K
15 0.0 0.0 0.0 Γ
%endblock Bandlines
