SystemName graphene450
SystemLabel graphene450

NumberOfAtoms 450
NumberOfSpecies 1

%block Chemical_Species_label
1 6 C
%endblock Chemical_Species_label

LatticeConstant 1.0 Ang
%block LatticeVectors
 36.918000 0.0000000 0.000000
 -18.45900 31.971926 0.000000
 0.0000000 0.0000000 15.00000
%endblock LatticeVectors

AtomicCoordinatesFormat Ang
%block  AtomicCoordinatesAndAtomicSpecies
-16.613100 	30.195708 	7.500000 	1
-16.613100 	31.616682 	7.500000 	1
-15.382500 	28.064246 	7.500000 	1
-15.382500 	29.485220 	7.500000 	1
-14.151900 	27.353759 	7.500000 	1
-14.151900 	25.932784 	7.500000 	1
-14.151900 	30.195708 	7.500000 	1
-14.151900 	31.616682 	7.500000 	1
-12.921300 	23.801323 	7.500000 	1
-12.921300 	25.222297 	7.500000 	1
-12.921300 	28.064246 	7.500000 	1
-12.921300 	29.485220 	7.500000 	1
-11.690700 	23.090835 	7.500000 	1
-11.690700 	27.353759 	7.500000 	1
-11.690700 	21.669861 	7.500000 	1
-11.690700 	25.932784 	7.500000 	1
-11.690700 	30.195708 	7.500000 	1
-11.690700 	31.616682 	7.500000 	1
-10.460100 	19.538399 	7.500000 	1
-10.460100 	20.959374 	7.500000 	1
-10.460100 	23.801323 	7.500000 	1
-10.460100 	25.222297 	7.500000 	1
-10.460100 	28.064246 	7.500000 	1
-10.460100 	29.485220 	7.500000 	1
-9.229500 	18.827912 	7.500000 	1
-9.229500 	17.406937 	7.500000 	1
-9.229500 	21.669861 	7.500000 	1
-9.229500 	23.090835 	7.500000 	1
-9.229500 	25.932784 	7.500000 	1
-9.229500 	27.353759 	7.500000 	1
-9.229500 	30.195708 	7.500000 	1
-9.229500 	31.616682 	7.500000 	1
-7.998900 	15.275476 	7.500000 	1
-7.998900 	16.696450 	7.500000 	1
-7.998900 	19.538399 	7.500000 	1
-7.998900 	20.959374 	7.500000 	1
-7.998900 	23.801323 	7.500000 	1
-7.998900 	25.222297 	7.500000 	1
-7.998900 	28.064246 	7.500000 	1
-7.998900 	29.485220 	7.500000 	1
-6.768300 	13.144014 	7.500000 	1
-6.768300 	14.564988 	7.500000 	1
-6.768300 	17.406937 	7.500000 	1
-6.768300 	18.827912 	7.500000 	1
-6.768300 	21.669861 	7.500000 	1
-6.768300 	23.090835 	7.500000 	1
-6.768300 	25.932784 	7.500000 	1
-6.768300 	27.353759 	7.500000 	1
-6.768300 	30.195708 	7.500000 	1
-6.768300 	31.616682 	7.500000 	1
-5.537700 	11.012552 	7.500000 	1
-5.537700 	12.433527 	7.500000 	1
-5.537700 	15.275476 	7.500000 	1
-5.537700 	25.222297 	7.500000 	1
-5.537700 	29.485220 	7.500000 	1
-5.537700 	16.696450 	7.500000 	1
-5.537700 	19.538399 	7.500000 	1
-5.537700 	20.959374 	7.500000 	1
-5.537700 	23.801323 	7.500000 	1
-5.537700 	28.064246 	7.500000 	1
-4.307100 	8.881090 	7.500000 	1
-4.307100 	10.302065 	7.500000 	1
-4.307100 	13.144014 	7.500000 	1
-4.307100 	14.564988 	7.500000 	1
-4.307100 	18.827912 	7.500000 	1
-4.307100 	23.090835 	7.500000 	1
-4.307100 	27.353759 	7.500000 	1
-4.307100 	17.406937 	7.500000 	1
-4.307100 	21.669861 	7.500000 	1
-4.307100 	25.932784 	7.500000 	1
-4.307100 	30.195708 	7.500000 	1
-4.307100 	31.616682 	7.500000 	1
-3.076500 	11.012552 	7.500000 	1
-3.076500 	12.433527 	7.500000 	1
-3.076500 	15.275476 	7.500000 	1
-3.076500 	20.959374 	7.500000 	1
-3.076500 	25.222297 	7.500000 	1
-3.076500 	29.485220 	7.500000 	1
-3.076500 	6.749629 	7.500000 	1
-3.076500 	8.170603 	7.500000 	1
-3.076500 	16.696450 	7.500000 	1
-3.076500 	19.538399 	7.500000 	1
-3.076500 	23.801323 	7.500000 	1
-3.076500 	28.064246 	7.500000 	1
-1.845900 	8.881090 	7.500000 	1
-1.845900 	10.302065 	7.500000 	1
-1.845900 	13.144014 	7.500000 	1
-1.845900 	14.564988 	7.500000 	1
-1.845900 	18.827912 	7.500000 	1
-1.845900 	23.090835 	7.500000 	1
-1.845900 	27.353759 	7.500000 	1
-1.845900 	31.616682 	7.500000 	1
-1.845900 	4.618167 	7.500000 	1
-1.845900 	6.039142 	7.500000 	1
-1.845900 	17.406937 	7.500000 	1
-1.845900 	21.669861 	7.500000 	1
-1.845900 	25.932784 	7.500000 	1
-1.845900 	30.195708 	7.500000 	1
-0.615300 	2.486705 	7.500000 	1
-0.615300 	11.012552 	7.500000 	1
-0.615300 	12.433527 	7.500000 	1
-0.615300 	15.275476 	7.500000 	1
-0.615300 	16.696450 	7.500000 	1
-0.615300 	20.959374 	7.500000 	1
-0.615300 	25.222297 	7.500000 	1
-0.615300 	29.485220 	7.500000 	1
-0.615300 	3.907680 	7.500000 	1
-0.615300 	6.749629 	7.500000 	1
-0.615300 	8.170603 	7.500000 	1
-0.615300 	19.538399 	7.500000 	1
-0.615300 	23.801323 	7.500000 	1
-0.615300 	28.064246 	7.500000 	1
0.615300 	8.881090 	7.500000 	1
0.615300 	10.302065 	7.500000 	1
0.615300 	13.144014 	7.500000 	1
0.615300 	14.564988 	7.500000 	1
0.615300 	18.827912 	7.500000 	1
0.615300 	23.090835 	7.500000 	1
0.615300 	27.353759 	7.500000 	1
0.615300 	0.355244 	7.500000 	1
0.615300 	1.776218 	7.500000 	1
0.615300 	4.618167 	7.500000 	1
0.615300 	6.039142 	7.500000 	1
0.615300 	17.406937 	7.500000 	1
0.615300 	21.669861 	7.500000 	1
0.615300 	25.932784 	7.500000 	1
0.615300 	30.195708 	7.500000 	1
0.615300 	31.616682 	7.500000 	1
1.845900 	2.486705 	7.500000 	1
1.845900 	11.012552 	7.500000 	1
1.845900 	12.433527 	7.500000 	1
1.845900 	15.275476 	7.500000 	1
1.845900 	16.696450 	7.500000 	1
1.845900 	20.959374 	7.500000 	1
1.845900 	25.222297 	7.500000 	1
1.845900 	28.064246 	7.500000 	1
1.845900 	29.485220 	7.500000 	1
1.845900 	3.907680 	7.500000 	1
1.845900 	6.749629 	7.500000 	1
1.845900 	8.170603 	7.500000 	1
1.845900 	19.538399 	7.500000 	1
1.845900 	23.801323 	7.500000 	1
3.076500 	0.355244 	7.500000 	1
3.076500 	1.776218 	7.500000 	1
3.076500 	4.618167 	7.500000 	1
3.076500 	6.039142 	7.500000 	1
3.076500 	8.881090 	7.500000 	1
3.076500 	10.302065 	7.500000 	1
3.076500 	13.144014 	7.500000 	1
3.076500 	14.564988 	7.500000 	1
3.076500 	17.406937 	7.500000 	1
3.076500 	18.827912 	7.500000 	1
3.076500 	21.669861 	7.500000 	1
3.076500 	23.090835 	7.500000 	1
3.076500 	25.932784 	7.500000 	1
3.076500 	27.353759 	7.500000 	1
3.076500 	30.195708 	7.500000 	1
3.076500 	31.616682 	7.500000 	1
4.307100 	8.170603 	7.500000 	1
4.307100 	11.012552 	7.500000 	1
4.307100 	12.433527 	7.500000 	1
4.307100 	15.275476 	7.500000 	1
4.307100 	16.696450 	7.500000 	1
4.307100 	20.959374 	7.500000 	1
4.307100 	23.801323 	7.500000 	1
4.307100 	25.222297 	7.500000 	1
4.307100 	2.486705 	7.500000 	1
4.307100 	3.907680 	7.500000 	1
4.307100 	6.749629 	7.500000 	1
4.307100 	19.538399 	7.500000 	1
4.307100 	28.064246 	7.500000 	1
4.307100 	29.485220 	7.500000 	1
5.537700 	6.039142 	7.500000 	1
5.537700 	8.881090 	7.500000 	1
5.537700 	10.302065 	7.500000 	1
5.537700 	13.144014 	7.500000 	1
5.537700 	14.564988 	7.500000 	1
5.537700 	18.827912 	7.500000 	1
5.537700 	21.669861 	7.500000 	1
5.537700 	23.090835 	7.500000 	1
5.537700 	0.355244 	7.500000 	1
5.537700 	1.776218 	7.500000 	1
5.537700 	4.618167 	7.500000 	1
5.537700 	17.406937 	7.500000 	1
5.537700 	25.932784 	7.500000 	1
5.537700 	27.353759 	7.500000 	1
5.537700 	30.195708 	7.500000 	1
5.537700 	31.616682 	7.500000 	1
6.768300 	3.907680 	7.500000 	1
6.768300 	8.170603 	7.500000 	1
6.768300 	11.012552 	7.500000 	1
6.768300 	12.433527 	7.500000 	1
6.768300 	15.275476 	7.500000 	1
6.768300 	16.696450 	7.500000 	1
6.768300 	19.538399 	7.500000 	1
6.768300 	20.959374 	7.500000 	1
6.768300 	2.486705 	7.500000 	1
6.768300 	6.749629 	7.500000 	1
6.768300 	23.801323 	7.500000 	1
6.768300 	25.222297 	7.500000 	1
6.768300 	28.064246 	7.500000 	1
6.768300 	29.485220 	7.500000 	1
7.998900 	1.776218 	7.500000 	1
7.998900 	6.039142 	7.500000 	1
7.998900 	8.881090 	7.500000 	1
7.998900 	10.302065 	7.500000 	1
7.998900 	13.144014 	7.500000 	1
7.998900 	14.564988 	7.500000 	1
7.998900 	17.406937 	7.500000 	1
7.998900 	18.827912 	7.500000 	1
7.998900 	0.355244 	7.500000 	1
7.998900 	4.618167 	7.500000 	1
7.998900 	21.669861 	7.500000 	1
7.998900 	23.090835 	7.500000 	1
7.998900 	25.932784 	7.500000 	1
7.998900 	27.353759 	7.500000 	1
7.998900 	30.195708 	7.500000 	1
7.998900 	31.616682 	7.500000 	1
9.229500 	2.486705 	7.500000 	1
9.229500 	3.907680 	7.500000 	1
9.229500 	8.170603 	7.500000 	1
9.229500 	11.012552 	7.500000 	1
9.229500 	12.433527 	7.500000 	1
9.229500 	15.275476 	7.500000 	1
9.229500 	16.696450 	7.500000 	1
9.229500 	6.749629 	7.500000 	1
9.229500 	19.538399 	7.500000 	1
9.229500 	20.959374 	7.500000 	1
9.229500 	23.801323 	7.500000 	1
9.229500 	25.222297 	7.500000 	1
9.229500 	28.064246 	7.500000 	1
9.229500 	29.485220 	7.500000 	1
10.460100 	0.355244 	7.500000 	1
10.460100 	1.776218 	7.500000 	1
10.460100 	4.618167 	7.500000 	1
10.460100 	6.039142 	7.500000 	1
10.460100 	8.881090 	7.500000 	1
10.460100 	10.302065 	7.500000 	1
10.460100 	13.144014 	7.500000 	1
10.460100 	14.564988 	7.500000 	1
10.460100 	17.406937 	7.500000 	1
10.460100 	18.827912 	7.500000 	1
10.460100 	21.669861 	7.500000 	1
10.460100 	23.090835 	7.500000 	1
10.460100 	25.932784 	7.500000 	1
10.460100 	27.353759 	7.500000 	1
10.460100 	30.195708 	7.500000 	1
10.460100 	31.616682 	7.500000 	1
11.690700 	2.486705 	7.500000 	1
11.690700 	3.907680 	7.500000 	1
11.690700 	6.749629 	7.500000 	1
11.690700 	8.170603 	7.500000 	1
11.690700 	11.012552 	7.500000 	1
11.690700 	12.433527 	7.500000 	1
11.690700 	15.275476 	7.500000 	1
11.690700 	16.696450 	7.500000 	1
11.690700 	19.538399 	7.500000 	1
11.690700 	20.959374 	7.500000 	1
11.690700 	23.801323 	7.500000 	1
11.690700 	25.222297 	7.500000 	1
11.690700 	28.064246 	7.500000 	1
11.690700 	29.485220 	7.500000 	1
12.921300 	0.355244 	7.500000 	1
12.921300 	1.776218 	7.500000 	1
12.921300 	4.618167 	7.500000 	1
12.921300 	6.039142 	7.500000 	1
12.921300 	8.881090 	7.500000 	1
12.921300 	10.302065 	7.500000 	1
12.921300 	13.144014 	7.500000 	1
12.921300 	14.564988 	7.500000 	1
12.921300 	17.406937 	7.500000 	1
12.921300 	18.827912 	7.500000 	1
12.921300 	21.669861 	7.500000 	1
12.921300 	23.090835 	7.500000 	1
12.921300 	25.932784 	7.500000 	1
12.921300 	27.353759 	7.500000 	1
12.921300 	30.195708 	7.500000 	1
12.921300 	31.616682 	7.500000 	1
14.151900 	2.486705 	7.500000 	1
14.151900 	3.907680 	7.500000 	1
14.151900 	6.749629 	7.500000 	1
14.151900 	8.170603 	7.500000 	1
14.151900 	11.012552 	7.500000 	1
14.151900 	12.433527 	7.500000 	1
14.151900 	15.275476 	7.500000 	1
14.151900 	16.696450 	7.500000 	1
14.151900 	19.538399 	7.500000 	1
14.151900 	20.959374 	7.500000 	1
14.151900 	23.801323 	7.500000 	1
14.151900 	25.222297 	7.500000 	1
14.151900 	28.064246 	7.500000 	1
14.151900 	29.485220 	7.500000 	1
15.382500 	0.355244 	7.500000 	1
15.382500 	1.776218 	7.500000 	1
15.382500 	4.618167 	7.500000 	1
15.382500 	6.039142 	7.500000 	1
15.382500 	8.881090 	7.500000 	1
15.382500 	10.302065 	7.500000 	1
15.382500 	13.144014 	7.500000 	1
15.382500 	14.564988 	7.500000 	1
15.382500 	17.406937 	7.500000 	1
15.382500 	18.827912 	7.500000 	1
15.382500 	21.669861 	7.500000 	1
15.382500 	23.090835 	7.500000 	1
15.382500 	25.932784 	7.500000 	1
15.382500 	27.353759 	7.500000 	1
15.382500 	30.195708 	7.500000 	1
15.382500 	31.616682 	7.500000 	1
16.613100 	2.486705 	7.500000 	1
16.613100 	3.907680 	7.500000 	1
16.613100 	6.749629 	7.500000 	1
16.613100 	8.170603 	7.500000 	1
16.613100 	11.012552 	7.500000 	1
16.613100 	12.433527 	7.500000 	1
16.613100 	15.275476 	7.500000 	1
16.613100 	16.696450 	7.500000 	1
16.613100 	19.538399 	7.500000 	1
16.613100 	20.959374 	7.500000 	1
16.613100 	23.801323 	7.500000 	1
16.613100 	25.222297 	7.500000 	1
16.613100 	28.064246 	7.500000 	1
16.613100 	29.485220 	7.500000 	1
17.843700 	0.355244 	7.500000 	1
17.843700 	1.776218 	7.500000 	1
17.843700 	14.564988 	7.500000 	1
17.843700 	23.090835 	7.500000 	1
17.843700 	4.618167 	7.500000 	1
17.843700 	6.039142 	7.500000 	1
17.843700 	8.881090 	7.500000 	1
17.843700 	10.302065 	7.500000 	1
17.843700 	13.144014 	7.500000 	1
17.843700 	17.406937 	7.500000 	1
17.843700 	18.827912 	7.500000 	1
17.843700 	21.669861 	7.500000 	1
17.843700 	25.932784 	7.500000 	1
17.843700 	27.353759 	7.500000 	1
17.843700 	30.195708 	7.500000 	1
17.843700 	31.616682 	7.500000 	1
19.074300 	2.486705 	7.500000 	1
19.074300 	3.907680 	7.500000 	1
19.074300 	6.749629 	7.500000 	1
19.074300 	8.170603 	7.500000 	1
19.074300 	11.012552 	7.500000 	1
19.074300 	12.433527 	7.500000 	1
19.074300 	15.275476 	7.500000 	1
19.074300 	16.696450 	7.500000 	1
19.074300 	19.538399 	7.500000 	1
19.074300 	20.959374 	7.500000 	1
19.074300 	23.801323 	7.500000 	1
19.074300 	25.222297 	7.500000 	1
19.074300 	28.064246 	7.500000 	1
19.074300 	29.485220 	7.500000 	1
20.304900 	0.355244 	7.500000 	1
20.304900 	1.776218 	7.500000 	1
20.304900 	4.618167 	7.500000 	1
20.304900 	6.039142 	7.500000 	1
20.304900 	8.881090 	7.500000 	1
20.304900 	10.302065 	7.500000 	1
20.304900 	13.144014 	7.500000 	1
20.304900 	14.564988 	7.500000 	1
20.304900 	17.406937 	7.500000 	1
20.304900 	18.827912 	7.500000 	1
20.304900 	21.669861 	7.500000 	1
20.304900 	23.090835 	7.500000 	1
20.304900 	25.932784 	7.500000 	1
20.304900 	27.353759 	7.500000 	1
21.535500 	8.170603 	7.500000 	1
21.535500 	11.012552 	7.500000 	1
21.535500 	16.696450 	7.500000 	1
21.535500 	25.222297 	7.500000 	1
21.535500 	2.486705 	7.500000 	1
21.535500 	3.907680 	7.500000 	1
21.535500 	6.749629 	7.500000 	1
21.535500 	12.433527 	7.500000 	1
21.535500 	15.275476 	7.500000 	1
21.535500 	19.538399 	7.500000 	1
21.535500 	20.959374 	7.500000 	1
21.535500 	23.801323 	7.500000 	1
22.766100 	0.355244 	7.500000 	1
22.766100 	1.776218 	7.500000 	1
22.766100 	4.618167 	7.500000 	1
22.766100 	6.039142 	7.500000 	1
22.766100 	8.881090 	7.500000 	1
22.766100 	10.302065 	7.500000 	1
22.766100 	13.144014 	7.500000 	1
22.766100 	14.564988 	7.500000 	1
22.766100 	17.406937 	7.500000 	1
22.766100 	18.827912 	7.500000 	1
22.766100 	21.669861 	7.500000 	1
22.766100 	23.090835 	7.500000 	1
23.996700 	2.486705 	7.500000 	1
23.996700 	3.907680 	7.500000 	1
23.996700 	6.749629 	7.500000 	1
23.996700 	8.170603 	7.500000 	1
23.996700 	11.012552 	7.500000 	1
23.996700 	12.433527 	7.500000 	1
23.996700 	15.275476 	7.500000 	1
23.996700 	16.696450 	7.500000 	1
23.996700 	19.538399 	7.500000 	1
23.996700 	20.959374 	7.500000 	1
25.227300 	0.355244 	7.500000 	1
25.227300 	1.776218 	7.500000 	1
25.227300 	4.618167 	7.500000 	1
25.227300 	6.039142 	7.500000 	1
25.227300 	8.881090 	7.500000 	1
25.227300 	10.302065 	7.500000 	1
25.227300 	13.144014 	7.500000 	1
25.227300 	14.564988 	7.500000 	1
25.227300 	17.406937 	7.500000 	1
25.227300 	18.827912 	7.500000 	1
26.457900 	2.486705 	7.500000 	1
26.457900 	3.907680 	7.500000 	1
26.457900 	6.749629 	7.500000 	1
26.457900 	8.170603 	7.500000 	1
26.457900 	11.012552 	7.500000 	1
26.457900 	12.433527 	7.500000 	1
26.457900 	15.275476 	7.500000 	1
26.457900 	16.696450 	7.500000 	1
27.688500 	14.564988 	7.500000 	1
27.688500 	0.355244 	7.500000 	1
27.688500 	1.776218 	7.500000 	1
27.688500 	4.618167 	7.500000 	1
27.688500 	6.039142 	7.500000 	1
27.688500 	8.881090 	7.500000 	1
27.688500 	10.302065 	7.500000 	1
27.688500 	13.144014 	7.500000 	1
28.919100 	2.486705 	7.500000 	1
28.919100 	3.907680 	7.500000 	1
28.919100 	6.749629 	7.500000 	1
28.919100 	8.170603 	7.500000 	1
28.919100 	11.012552 	7.500000 	1
28.919100 	12.433527 	7.500000 	1
30.149700 	0.355244 	7.500000 	1
30.149700 	1.776218 	7.500000 	1
30.149700 	4.618167 	7.500000 	1
30.149700 	6.039142 	7.500000 	1
30.149700 	8.881090 	7.500000 	1
30.149700 	10.302065 	7.500000 	1
31.380300 	8.170603 	7.500000 	1
31.380300 	2.486705 	7.500000 	1
31.380300 	3.907680 	7.500000 	1
31.380300 	6.749629 	7.500000 	1
32.610900 	0.355244 	7.500000 	1
32.610900 	1.776218 	7.500000 	1
32.610900 	4.618167 	7.500000 	1
32.610900 	6.039142 	7.500000 	1
33.841500 	2.486705 	7.500000 	1
33.841500 	3.907680 	7.500000 	1
35.072100 	0.355244 	7.500000 	1
35.072100 	1.776218 	7.500000 	1
%endblock  AtomicCoordinatesAndAtomicSpecies



%block kgrid_Monkhorst_Pack
  5   0   0    0.0
  0   5   0    0.0
  0   0   1    0.0
%endblock kgrid_Monkhorst_Pack

xc.functional           GGA
xc.authors              PBE

MeshCutoff              300.00 Ry
SolutionMethod          diagon
OccupationFunction      MP
ElectronicTemperature   300 K

Spin                    non-polarized         
FixSpin                 F

MaxSCFIterations        1
SCF.DM.Tolerance        1.d-6
SCF.Mixer.History       6
SCF.Mixer.Weight        0.3
SCF.MustConverge        F

UseSaveData             T

#MD.FinalTimeStep        1
#MD.Steps                0
#MD.TypeOfRun            CG
#MD.VariableCell         F

Diag.ParallelOverK      T

PAO.BasisType           split
PAO.BasisSize           SZP

SaveHS                  true

WriteMullikenPop        0
WriteKpoints            F
WriteBands              F
WriteKbands             F
WriteEigenvalues        F
WriteCoorXmol           F

#BandLinesScale ReciprocalLatticeVectors
#%block BandLines
#1 0.0 0.0 0.0 Γ
#15 0.5 0.0 0.0 M
#10 0.33333333 0.33333333 0.0 K
#15 0.0 0.0 0.0 Γ
#%endblock Bandlines
